n = 50;
C = 251;
w = [27,47,284,450,143,69,365,176,227,426,176,335,235,342,23,313,12,266,368,162,70,493,321,457,436,366,148,405,55,23,492,202,95,490,339,489,40,451,198,175,227,467,192,82,251,172,231,226,72,483];
p = [245,336,111,69,347,8,427,450,80,357,13,326,93,363,28,439,435,243,213,91,476,286,112,154,443,16,285,279,62,186,265,274,67,364,105,213,256,424,34,424,122,321,87,290,211,401,254,243,408,243];
